db/inputs/69713215729030247413168146902594230508.smt2
(set-logic QF_FP)
(declare-const x0 (_ FloatingPoint 11 53))
(declare-const x1 (_ FloatingPoint 11 53))
(declare-const x2 (_ FloatingPoint 11 53))
(declare-const x3 (_ FloatingPoint 11 53))
(declare-const x4 (_ FloatingPoint 11 53))
(declare-const x5 (_ FloatingPoint 11 53))
(declare-const x6 (_ FloatingPoint 11 53))
(declare-const x7 (_ FloatingPoint 11 53))
(declare-const x8 (_ FloatingPoint 11 53))
(declare-const x9 (_ FloatingPoint 11 53))
(declare-const x10 (_ FloatingPoint 11 53))
(declare-const x11 (_ FloatingPoint 11 53))
(declare-const x12 (_ FloatingPoint 11 53))
(declare-const x13 (_ FloatingPoint 11 53))
(declare-const x14 (_ FloatingPoint 11 53))
(declare-const x15 (_ FloatingPoint 11 53))
(declare-const x16 (_ FloatingPoint 11 53))
(declare-const x17 (_ FloatingPoint 11 53))
(declare-const x18 (_ FloatingPoint 11 53))
(declare-const x19 (_ FloatingPoint 11 53))
(declare-const x20 (_ FloatingPoint 11 53))
(declare-const x21 (_ FloatingPoint 11 53))
(declare-const x22 (_ FloatingPoint 11 53))
(declare-const x23 (_ FloatingPoint 11 53))
(assert (fp.geq (fp.div RNE (fp.neg (fp.add RNE (fp.sub RNE x2 x6) (fp.div RNE x21 x22))) (fp.mul RNE (fp.sub RNE (fp.neg x6) (fp.mul RNE x17 x22)) (fp.mul RNE (fp.add RNE x15 x3) (fp.sub RNE x11 x12)))) (fp.add RNE (fp.div RNE (fp.add RNE (fp.div RNE x21 x17) (fp.add RNE x1 x22)) (fp.neg (fp.mul RNE x9 x12))) (fp.div RNE (fp.sub RNE (fp.neg x1) (fp.sub RNE x0 x4)) (fp.neg (fp.mul RNE x18 x9))))))
(assert (fp.gt (fp.add RNE (fp.mul RNE (fp.mul RNE (fp.mul RNE x21 x23) (fp.sub RNE x14 x13)) (fp.div RNE (fp.add RNE x3 x1) (fp.neg x5))) (fp.mul RNE (fp.add RNE (fp.div RNE x22 x19) (fp.div RNE x9 x4)) (fp.neg (fp.sub RNE x16 x14)))) (fp.sub RNE (fp.mul RNE (fp.sub RNE (fp.add RNE x13 x17) (fp.div RNE x3 x4)) (fp.div RNE (fp.mul RNE x11 x23) (fp.add RNE x8 x14))) (fp.neg (fp.sub RNE (fp.div RNE x8 x5) (fp.neg x14))))))
(assert (fp.lt (fp.div RNE (fp.mul RNE (fp.add RNE (fp.add RNE x6 x0) (fp.mul RNE x9 x23)) (fp.neg (fp.neg x9))) (fp.neg (fp.sub RNE (fp.mul RNE x18 x19) (fp.div RNE x7 x16)))) (fp.sub RNE (fp.div RNE (fp.add RNE (fp.add RNE x17 x9) (fp.mul RNE x5 x18)) (fp.neg (fp.neg x9))) (fp.div RNE (fp.sub RNE (fp.add RNE x13 x20) (fp.add RNE x20 x11)) (fp.div RNE (fp.sub RNE x2 x3) (fp.mul RNE x11 x0))))))
(assert (fp.leq (fp.div RNE (fp.mul RNE (fp.mul RNE (fp.sub RNE x7 x15) (fp.sub RNE x13 x16)) (fp.mul RNE (fp.sub RNE x12 x23) (fp.neg x21))) (fp.neg (fp.mul RNE (fp.div RNE x10 x11) (fp.add RNE x4 x9)))) (fp.sub RNE (fp.neg (fp.neg (fp.div RNE x2 x6))) (fp.neg (fp.mul RNE (fp.mul RNE x20 x9) (fp.div RNE x7 x11))))))
(assert (fp.geq (fp.neg (fp.div RNE (fp.neg (fp.mul RNE x8 x4)) (fp.add RNE (fp.add RNE x16 x21) (fp.sub RNE x6 x1)))) (fp.mul RNE (fp.neg (fp.sub RNE (fp.div RNE x21 x6) (fp.sub RNE x14 x7))) (fp.mul RNE (fp.sub RNE (fp.sub RNE x0 x1) (fp.neg x18)) (fp.add RNE (fp.sub RNE x3 x5) (fp.neg x17))))))
(assert (fp.eq (fp.add RNE (fp.div RNE (fp.sub RNE (fp.neg x15) (fp.div RNE x5 x4)) (fp.div RNE (fp.sub RNE x18 x0) (fp.div RNE x14 x8))) (fp.sub RNE (fp.mul RNE (fp.neg x22) (fp.div RNE x10 x18)) (fp.sub RNE (fp.neg x5) (fp.sub RNE x9 x0)))) (fp.add RNE (fp.div RNE (fp.add RNE (fp.sub RNE x9 x18) (fp.div RNE x6 x10)) (fp.div RNE (fp.neg x12) (fp.neg x11))) (fp.mul RNE (fp.mul RNE (fp.mul RNE x6 x15) (fp.sub RNE x11 x2)) (fp.neg (fp.neg x6))))))
(assert (fp.leq (fp.neg (fp.add RNE (fp.div RNE (fp.div RNE x12 x12) (fp.neg x0)) (fp.add RNE (fp.add RNE x1 x9) (fp.sub RNE x9 x20)))) (fp.sub RNE (fp.add RNE (fp.div RNE (fp.sub RNE x1 x21) (fp.neg x0)) (fp.div RNE (fp.mul RNE x2 x6) (fp.div RNE x11 x20))) (fp.sub RNE (fp.add RNE (fp.div RNE x19 x22) (fp.sub RNE x3 x8)) (fp.add RNE (fp.add RNE x6 x7) (fp.add RNE x20 x1))))))
(assert (fp.geq (fp.mul RNE (fp.mul RNE (fp.add RNE (fp.add RNE x14 x11) (fp.add RNE x20 x21)) (fp.add RNE (fp.mul RNE x2 x10) (fp.div RNE x17 x1))) (fp.add RNE (fp.add RNE (fp.mul RNE x5 x14) (fp.div RNE x7 x3)) (fp.neg (fp.add RNE x14 x18)))) (fp.mul RNE (fp.add RNE (fp.sub RNE (fp.sub RNE x23 x8) (fp.neg x21)) (fp.sub RNE (fp.div RNE x17 x22) (fp.sub RNE x9 x3))) (fp.mul RNE (fp.mul RNE (fp.sub RNE x13 x14) (fp.sub RNE x11 x19)) (fp.sub RNE (fp.sub RNE x15 x21) (fp.mul RNE x7 x6))))))
(assert (fp.leq (fp.add RNE (fp.neg (fp.neg (fp.sub RNE x18 x12))) (fp.div RNE (fp.mul RNE (fp.div RNE x23 x1) (fp.add RNE x2 x22)) (fp.mul RNE (fp.neg x7) (fp.mul RNE x13 x14)))) (fp.add RNE (fp.mul RNE (fp.sub RNE (fp.neg x12) (fp.mul RNE x15 x22)) (fp.add RNE (fp.sub RNE x18 x2) (fp.mul RNE x15 x16))) (fp.sub RNE (fp.div RNE (fp.mul RNE x2 x12) (fp.div RNE x0 x20)) (fp.div RNE (fp.mul RNE x22 x23) (fp.sub RNE x12 x16))))))
(assert (fp.lt (fp.div RNE (fp.neg (fp.mul RNE (fp.add RNE x7 x1) (fp.add RNE x7 x20))) (fp.add RNE (fp.neg (fp.neg x13)) (fp.neg (fp.mul RNE x10 x4)))) (fp.sub RNE (fp.sub RNE (fp.mul RNE (fp.mul RNE x10 x3) (fp.mul RNE x4 x1)) (fp.mul RNE (fp.div RNE x8 x12) (fp.neg x22))) (fp.add RNE (fp.div RNE (fp.neg x9) (fp.mul RNE x11 x21)) (fp.neg (fp.neg x18))))))
(assert (fp.gt (fp.div RNE (fp.add RNE (fp.mul RNE (fp.div RNE x3 x8) (fp.mul RNE x2 x14)) (fp.add RNE (fp.sub RNE x15 x23) (fp.div RNE x3 x5))) (fp.add RNE (fp.sub RNE (fp.add RNE x21 x18) (fp.sub RNE x3 x16)) (fp.neg (fp.mul RNE x13 x14)))) (fp.div RNE (fp.add RNE (fp.div RNE (fp.mul RNE x12 x10) (fp.mul RNE x18 x1)) (fp.add RNE (fp.neg x8) (fp.add RNE x3 x1))) (fp.neg (fp.sub RNE (fp.sub RNE x16 x19) (fp.div RNE x5 x20))))))
(assert (fp.geq (fp.div RNE (fp.add RNE (fp.div RNE (fp.mul RNE x3 x19) (fp.neg x13)) (fp.mul RNE (fp.div RNE x10 x3) (fp.neg x6))) (fp.mul RNE (fp.div RNE (fp.mul RNE x2 x1) (fp.mul RNE x13 x11)) (fp.neg (fp.sub RNE x16 x17)))) (fp.div RNE (fp.add RNE (fp.mul RNE (fp.neg x18) (fp.div RNE x22 x1)) (fp.mul RNE (fp.mul RNE x13 x23) (fp.neg x1))) (fp.neg (fp.mul RNE (fp.neg x2) (fp.add RNE x12 x6))))))
(assert (fp.gt (fp.add RNE (fp.div RNE (fp.add RNE (fp.neg x22) (fp.div RNE x13 x17)) (fp.neg (fp.sub RNE x14 x13))) (fp.div RNE (fp.div RNE (fp.div RNE x14 x8) (fp.mul RNE x19 x3)) (fp.mul RNE (fp.mul RNE x9 x4) (fp.sub RNE x5 x0)))) (fp.neg (fp.add RNE (fp.mul RNE (fp.neg x8) (fp.neg x5)) (fp.div RNE (fp.div RNE x23 x23) (fp.div RNE x5 x8))))))
(assert (fp.leq (fp.neg (fp.add RNE (fp.div RNE (fp.mul RNE x16 x13) (fp.div RNE x12 x16)) (fp.sub RNE (fp.mul RNE x21 x4) (fp.mul RNE x1 x7)))) (fp.div RNE (fp.mul RNE (fp.neg (fp.neg x3)) (fp.neg (fp.sub RNE x12 x11))) (fp.div RNE (fp.mul RNE (fp.sub RNE x16 x16) (fp.add RNE x6 x17)) (fp.add RNE (fp.mul RNE x5 x16) (fp.add RNE x7 x16))))))
(assert (fp.eq (fp.mul RNE (fp.neg (fp.neg (fp.neg x12))) (fp.div RNE (fp.div RNE (fp.add RNE x6 x20) (fp.div RNE x18 x14)) (fp.mul RNE (fp.add RNE x18 x9) (fp.mul RNE x23 x18)))) (fp.mul RNE (fp.mul RNE (fp.add RNE (fp.mul RNE x12 x19) (fp.div RNE x5 x19)) (fp.add RNE (fp.mul RNE x18 x2) (fp.add RNE x10 x14))) (fp.mul RNE (fp.neg (fp.sub RNE x15 x20)) (fp.mul RNE (fp.add RNE x3 x15) (fp.div RNE x2 x21))))))
(assert (fp.gt (fp.mul RNE (fp.mul RNE (fp.neg (fp.neg x23)) (fp.sub RNE (fp.sub RNE x10 x8) (fp.mul RNE x4 x10))) (fp.neg (fp.div RNE (fp.sub RNE x19 x4) (fp.add RNE x9 x19)))) (fp.sub RNE (fp.neg (fp.add RNE (fp.div RNE x11 x0) (fp.div RNE x0 x3))) (fp.add RNE (fp.add RNE (fp.div RNE x22 x22) (fp.add RNE x7 x18)) (fp.neg (fp.sub RNE x8 x15))))))
(assert (fp.leq (fp.mul RNE (fp.div RNE (fp.neg (fp.sub RNE x20 x20)) (fp.neg (fp.div RNE x14 x8))) (fp.div RNE (fp.mul RNE (fp.sub RNE x3 x8) (fp.add RNE x23 x12)) (fp.div RNE (fp.mul RNE x15 x2) (fp.add RNE x5 x11)))) (fp.div RNE (fp.sub RNE (fp.sub RNE (fp.mul RNE x21 x23) (fp.neg x14)) (fp.mul RNE (fp.add RNE x12 x11) (fp.neg x23))) (fp.neg (fp.neg (fp.sub RNE x7 x20))))))
(check-sat)
