db/data/69713215729030247413168146902594230508.z3.out
solvers/z3/run.sh: line 2: 163809 Killed                  z3 -smt2 $1
-------------------
103.484017040
